Minimize
obj: 1.0x_1 + 1.0x_2 + 1.0x_3 + 1.0x_4 + 1.0x_5 + 1.0x_6
Subject To
x_1 + x_4 + x_6  >= 1
x_1 + x_6 + x_3 + x_5  >= 1
x_1 + x_2 + x_3  >= 1
x_4 + x_6 + x_2 + x_3  >= 1
x_4 + x_5 + x_1 + x_2  >= 1
x_6 + x_5 + x_2  >= 1
Bounds
General
Binaries
x_1
x_2
x_3
x_4
x_5
x_6
End
